c Sudoku solution
p cnf 729 0
146 0
227 0
235 0
254 0
283 0
318 0
369 0
384 0
423 0
462 0
485 0
498 0
532 0
589 0
591 0
639 0
822 0
833 0
113 0
212 0
129 0
134 0
841 0
248 0
261 0
866 0
888 0
178 0
181 0
938 0
943 0
353 0
967 0
165 0
974 0
771 0
793 0
814 0
444 0
459 0
651 0
556 0
764 0
758 0
749 0
952 0
855 0
782 0
986 0
919 0
921 0
995 0
411 0
326 0
331 0
725 0
342 0
157 0
192 0
672 0
573 0
694 0
568 0
663 0
524 0
628 0
375 0
397 0
687 0
476 0
437 0
616 0
515 0
547 0
645 0
717 0
736 0
279 0
296 0
877 0
899 0
